(set-logic QF_UF)
(declare-fun A0 () Bool)
(declare-fun A1 () Bool)
(declare-fun A2 () Bool)
(declare-fun A3 () Bool)
(declare-fun A4 () Bool)
(declare-fun A5 () Bool)
(declare-fun A6 () Bool)
(declare-fun A7 () Bool)
(declare-fun A8 () Bool)
(declare-fun A9 () Bool)
(declare-fun A10 () Bool)
(declare-fun A11 () Bool)
(declare-fun A12 () Bool)
(declare-fun A13 () Bool)
(declare-fun A14 () Bool)
(declare-fun A15 () Bool)
(declare-fun A16 () Bool)
(declare-fun A17 () Bool)
(declare-fun A18 () Bool)
(declare-fun A19 () Bool)
(declare-fun A20 () Bool)
(declare-fun A21 () Bool)
(declare-fun A22 () Bool)
(declare-fun A23 () Bool)
(declare-fun A24 () Bool)
(assert (let ((.def_0 (not A10))) (let ((.def_1 (and A3 .def_0))) (let ((.def_2 (or A2 A16))) (let ((.def_3 (or .def_2 .def_1))) (let ((.def_4 (not .def_3))) (let ((.def_5 (not A6))) (let ((.def_6 (and .def_5 A15))) (let ((.def_7 (not A9))) (let ((.def_8 (and A22 .def_7))) (let ((.def_9 (not .def_8))) (let ((.def_10 (or .def_9 .def_6))) (let ((.def_11 (not .def_10))) (let ((.def_12 (and .def_11 .def_4))) (let ((.def_13 (not .def_12))) (let ((.def_14 (not A7))) (let ((.def_15 (and .def_14 A13))) (let ((.def_16 (not .def_15))) (let ((.def_17 (and A19 A16))) (let ((.def_18 (not .def_17))) (let ((.def_19 (or .def_18 .def_16))) (let ((.def_20 (not A19))) (let ((.def_21 (or A12 .def_20))) (let ((.def_22 (not .def_21))) (let ((.def_23 (not A23))) (let ((.def_24 (and .def_23 A15))) (let ((.def_25 (not .def_24))) (let ((.def_26 (or .def_25 .def_22))) (let ((.def_27 (or .def_26 .def_19))) (let ((.def_28 (not .def_27))) (let ((.def_29 (or .def_28 .def_13))) (let ((.def_30 (not A5))) (let ((.def_31 (and .def_0 .def_30))) (let ((.def_32 (not .def_31))) (let ((.def_33 (and A11 .def_14))) (let ((.def_34 (not .def_33))) (let ((.def_35 (and .def_34 .def_32))) (let ((.def_36 (not .def_35))) (let ((.def_37 (not A17))) (let ((.def_38 (and A12 .def_37))) (let ((.def_39 (not .def_38))) (let ((.def_40 (and A1 A3))) (let ((.def_41 (not .def_40))) (let ((.def_42 (or .def_41 .def_39))) (let ((.def_43 (not .def_42))) (let ((.def_44 (and .def_43 .def_36))) (let ((.def_45 (not .def_44))) (let ((.def_46 (not A4))) (let ((.def_47 (and A15 .def_46))) (let ((.def_48 (not .def_47))) (let ((.def_49 (not A16))) (let ((.def_50 (or .def_49 A0))) (let ((.def_51 (not .def_50))) (let ((.def_52 (or .def_51 .def_48))) (let ((.def_53 (or A9 A17))) (let ((.def_54 (not .def_53))) (let ((.def_55 (not A24))) (let ((.def_56 (not A0))) (let ((.def_57 (and .def_56 .def_55))) (let ((.def_58 (not .def_57))) (let ((.def_59 (or .def_58 .def_54))) (let ((.def_60 (and .def_59 .def_52))) (let ((.def_61 (and .def_60 .def_45))) (let ((.def_62 (not .def_61))) (let ((.def_63 (and .def_62 .def_29))) (let ((.def_64 (not .def_63))) (let ((.def_65 (not A21))) (let ((.def_66 (or .def_46 .def_65))) (let ((.def_67 (not .def_66))) (let ((.def_68 (or A2 A4))) (let ((.def_69 (or .def_68 .def_67))) (let ((.def_70 (not .def_69))) (let ((.def_71 (= .def_23 A21))) (let ((.def_72 (and .def_0 .def_37))) (let ((.def_73 (not .def_72))) (let ((.def_74 (or .def_73 .def_71))) (let ((.def_75 (and .def_74 .def_70))) (let ((.def_76 (not .def_75))) (let ((.def_77 (not A14))) (let ((.def_78 (and A24 .def_77))) (let ((.def_79 (not .def_78))) (let ((.def_80 (not A3))) (let ((.def_81 (or .def_80 .def_20))) (let ((.def_82 (not .def_81))) (let ((.def_83 (or .def_82 .def_79))) (let ((.def_84 (not .def_83))) (let ((.def_85 (and A16 A12))) (let ((.def_86 (not .def_85))) (let ((.def_87 (or A24 A19))) (let ((.def_88 (and .def_87 .def_86))) (let ((.def_89 (or .def_88 .def_84))) (let ((.def_90 (not .def_89))) (let ((.def_91 (or .def_90 .def_76))) (let ((.def_92 (not A8))) (let ((.def_93 (and .def_92 A20))) (let ((.def_94 (and A2 A11))) (let ((.def_95 (and .def_94 .def_93))) (let ((.def_96 (not .def_95))) (let ((.def_97 (or A22 .def_77))) (let ((.def_98 (and A0 A11))) (let ((.def_99 (and .def_98 .def_97))) (let ((.def_100 (not .def_99))) (let ((.def_101 (or .def_100 .def_96))) (let ((.def_102 (not .def_101))) (let ((.def_103 (not A11))) (let ((.def_104 (or .def_103 A1))) (let ((.def_105 (= A15 A5))) (let ((.def_106 (and .def_105 .def_104))) (let ((.def_107 (not .def_106))) (let ((.def_108 (or .def_5 A3))) (let ((.def_109 (and .def_77 A18))) (let ((.def_110 (or .def_109 .def_108))) (let ((.def_111 (and .def_110 .def_107))) (let ((.def_112 (not .def_111))) (let ((.def_113 (and .def_112 .def_102))) (let ((.def_114 (or .def_113 .def_91))) (let ((.def_115 (not .def_114))) (let ((.def_116 (and .def_115 .def_64))) (let ((.def_117 (not .def_116))) (let ((.def_118 (not A15))) (let ((.def_119 (and .def_118 A1))) (let ((.def_120 (= A9 A14))) (let ((.def_121 (= .def_120 .def_119))) (let ((.def_122 (or .def_118 .def_7))) (let ((.def_123 (not .def_122))) (let ((.def_124 (= A6 A18))) (let ((.def_125 (not .def_124))) (let ((.def_126 (and .def_125 .def_123))) (let ((.def_127 (and .def_126 .def_121))) (let ((.def_128 (not .def_127))) (let ((.def_129 (not A13))) (let ((.def_130 (= .def_37 .def_129))) (let ((.def_131 (not A20))) (let ((.def_132 (or .def_131 A7))) (let ((.def_133 (not .def_132))) (let ((.def_134 (or .def_133 .def_130))) (let ((.def_135 (not .def_134))) (let ((.def_136 (or A3 .def_14))) (let ((.def_137 (and .def_20 .def_65))) (let ((.def_138 (not .def_137))) (let ((.def_139 (or .def_138 .def_136))) (let ((.def_140 (not .def_139))) (let ((.def_141 (and .def_140 .def_135))) (let ((.def_142 (not .def_141))) (let ((.def_143 (and .def_142 .def_128))) (let ((.def_144 (and A15 A0))) (let ((.def_145 (and A10 .def_49))) (let ((.def_146 (not .def_145))) (let ((.def_147 (or .def_146 .def_144))) (let ((.def_148 (not A2))) (let ((.def_149 (and .def_148 .def_56))) (let ((.def_150 (not .def_149))) (let ((.def_151 (not A18))) (let ((.def_152 (or A18 .def_151))) (let ((.def_153 (not .def_152))) (let ((.def_154 (or .def_153 .def_150))) (let ((.def_155 (not .def_154))) (let ((.def_156 (= .def_155 .def_147))) (let ((.def_157 (or A3 A18))) (let ((.def_158 (or A1 A23))) (let ((.def_159 (or .def_158 .def_157))) (let ((.def_160 (and .def_7 A11))) (let ((.def_161 (not .def_160))) (let ((.def_162 (not A1))) (let ((.def_163 (or .def_162 .def_131))) (let ((.def_164 (not .def_163))) (let ((.def_165 (or .def_164 .def_161))) (let ((.def_166 (and .def_165 .def_159))) (let ((.def_167 (not .def_166))) (let ((.def_168 (or .def_167 .def_156))) (let ((.def_169 (not .def_168))) (let ((.def_170 (or .def_169 .def_143))) (let ((.def_171 (not .def_170))) (let ((.def_172 (and A15 A18))) (let ((.def_173 (not .def_172))) (let ((.def_174 (or A12 A6))) (let ((.def_175 (and .def_174 .def_173))) (let ((.def_176 (not .def_175))) (let ((.def_177 (and A3 .def_148))) (let ((.def_178 (and A14 A6))) (let ((.def_179 (and .def_178 .def_177))) (let ((.def_180 (not .def_179))) (let ((.def_181 (= .def_180 .def_176))) (let ((.def_182 (not A12))) (let ((.def_183 (and .def_182 A21))) (let ((.def_184 (= .def_162 A5))) (let ((.def_185 (or .def_184 .def_183))) (let ((.def_186 (not .def_185))) (let ((.def_187 (or .def_148 .def_14))) (let ((.def_188 (or .def_187 .def_119))) (let ((.def_189 (not .def_188))) (let ((.def_190 (or .def_189 .def_186))) (let ((.def_191 (and .def_190 .def_181))) (let ((.def_192 (not .def_191))) (let ((.def_193 (and .def_7 .def_55))) (let ((.def_194 (not .def_193))) (let ((.def_195 (or A13 A9))) (let ((.def_196 (or .def_195 .def_194))) (let ((.def_197 (and A24 .def_103))) (let ((.def_198 (= A16 .def_30))) (let ((.def_199 (= .def_198 .def_197))) (let ((.def_200 (not .def_199))) (let ((.def_201 (and .def_200 .def_196))) (let ((.def_202 (not .def_201))) (let ((.def_203 (or A9 A21))) (let ((.def_204 (not .def_203))) (let ((.def_205 (and A3 A22))) (let ((.def_206 (not .def_205))) (let ((.def_207 (and .def_206 .def_204))) (let ((.def_208 (not .def_207))) (let ((.def_209 (and A14 A19))) (let ((.def_210 (not .def_209))) (let ((.def_211 (or .def_37 .def_49))) (let ((.def_212 (not .def_211))) (let ((.def_213 (or .def_212 .def_210))) (let ((.def_214 (not .def_213))) (let ((.def_215 (or .def_214 .def_208))) (let ((.def_216 (or .def_215 .def_202))) (let ((.def_217 (not .def_216))) (let ((.def_218 (= .def_217 .def_192))) (let ((.def_219 (or .def_218 .def_171))) (let ((.def_220 (not .def_219))) (let ((.def_221 (or .def_220 .def_117))) (let ((.def_222 (not .def_221))) (let ((.def_223 (and .def_7 .def_20))) (let ((.def_224 (or A9 A11))) (let ((.def_225 (and .def_224 .def_223))) (let ((.def_226 (and A24 A0))) (let ((.def_227 (not .def_226))) (let ((.def_228 (and .def_80 .def_92))) (let ((.def_229 (and .def_228 .def_227))) (let ((.def_230 (not .def_229))) (let ((.def_231 (and .def_230 .def_225))) (let ((.def_232 (or A1 .def_7))) (let ((.def_233 (and .def_49 .def_7))) (let ((.def_234 (not .def_233))) (let ((.def_235 (and .def_234 .def_232))) (let ((.def_236 (not .def_235))) (let ((.def_237 (or A5 .def_49))) (let ((.def_238 (not .def_237))) (let ((.def_239 (and A4 A6))) (let ((.def_240 (and .def_239 .def_238))) (let ((.def_241 (not .def_240))) (let ((.def_242 (and .def_241 .def_236))) (let ((.def_243 (not .def_242))) (let ((.def_244 (or .def_243 .def_231))) (let ((.def_245 (not .def_244))) (let ((.def_246 (and .def_23 .def_30))) (let ((.def_247 (not .def_246))) (let ((.def_248 (or A17 .def_23))) (let ((.def_249 (not .def_248))) (let ((.def_250 (and .def_249 .def_247))) (let ((.def_251 (or .def_77 .def_148))) (let ((.def_252 (and .def_129 A13))) (let ((.def_253 (not .def_252))) (let ((.def_254 (or .def_253 .def_251))) (let ((.def_255 (and .def_254 .def_250))) (let ((.def_256 (not .def_255))) (let ((.def_257 (or .def_148 A16))) (let ((.def_258 (not .def_257))) (let ((.def_259 (and A12 .def_162))) (let ((.def_260 (and .def_259 .def_258))) (let ((.def_261 (and .def_118 A4))) (let ((.def_262 (not .def_261))) (let ((.def_263 (and .def_23 A14))) (let ((.def_264 (or .def_263 .def_262))) (let ((.def_265 (not .def_264))) (let ((.def_266 (= .def_265 .def_260))) (let ((.def_267 (and .def_266 .def_256))) (let ((.def_268 (and .def_267 .def_245))) (let ((.def_269 (or A21 .def_118))) (let ((.def_270 (not .def_269))) (let ((.def_271 (not A22))) (let ((.def_272 (and A9 .def_271))) (let ((.def_273 (or .def_272 .def_270))) (let ((.def_274 (and .def_37 A20))) (let ((.def_275 (and .def_49 A10))) (let ((.def_276 (or .def_275 .def_274))) (let ((.def_277 (and .def_276 .def_273))) (let ((.def_278 (or A3 A1))) (let ((.def_279 (not .def_278))) (let ((.def_280 (or .def_7 .def_5))) (let ((.def_281 (not .def_280))) (let ((.def_282 (and .def_281 .def_279))) (let ((.def_283 (not .def_282))) (let ((.def_284 (and .def_182 .def_77))) (let ((.def_285 (or .def_23 .def_77))) (let ((.def_286 (not .def_285))) (let ((.def_287 (and .def_286 .def_284))) (let ((.def_288 (not .def_287))) (let ((.def_289 (and .def_288 .def_283))) (let ((.def_290 (and .def_289 .def_277))) (let ((.def_291 (not .def_290))) (let ((.def_292 (or A12 A4))) (let ((.def_293 (not .def_292))) (let ((.def_294 (and .def_151 .def_151))) (let ((.def_295 (not .def_294))) (let ((.def_296 (and .def_295 .def_293))) (let ((.def_297 (not .def_296))) (let ((.def_298 (or .def_20 A22))) (let ((.def_299 (not .def_298))) (let ((.def_300 (or .def_103 .def_271))) (let ((.def_301 (not .def_300))) (let ((.def_302 (= .def_301 .def_299))) (let ((.def_303 (and .def_302 .def_297))) (let ((.def_304 (and .def_49 .def_77))) (let ((.def_305 (and .def_79 .def_304))) (let ((.def_306 (and .def_56 .def_148))) (let ((.def_307 (or A8 .def_46))) (let ((.def_308 (and .def_307 .def_306))) (let ((.def_309 (not .def_308))) (let ((.def_310 (or .def_309 .def_305))) (let ((.def_311 (not .def_310))) (let ((.def_312 (and .def_311 .def_303))) (let ((.def_313 (not .def_312))) (let ((.def_314 (or .def_313 .def_291))) (let ((.def_315 (and .def_314 .def_268))) (let ((.def_316 (not .def_315))) (let ((.def_317 (or .def_162 A6))) (let ((.def_318 (not .def_317))) (let ((.def_319 (or A13 .def_30))) (let ((.def_320 (not .def_319))) (let ((.def_321 (and .def_320 .def_318))) (let ((.def_322 (and A0 .def_56))) (let ((.def_323 (or A23 A12))) (let ((.def_324 (or .def_323 .def_322))) (let ((.def_325 (not .def_324))) (let ((.def_326 (and .def_325 .def_321))) (let ((.def_327 (and A0 A12))) (let ((.def_328 (or .def_182 A7))) (let ((.def_329 (or .def_328 .def_327))) (let ((.def_330 (or A20 .def_46))) (let ((.def_331 (not .def_330))) (let ((.def_332 (or .def_131 .def_49))) (let ((.def_333 (not .def_332))) (let ((.def_334 (and .def_333 .def_331))) (let ((.def_335 (and .def_334 .def_329))) (let ((.def_336 (or .def_335 .def_326))) (let ((.def_337 (and .def_162 A7))) (let ((.def_338 (not .def_337))) (let ((.def_339 (or A0 .def_118))) (let ((.def_340 (and .def_339 .def_338))) (let ((.def_341 (not .def_340))) (let ((.def_342 (and A17 A15))) (let ((.def_343 (not .def_342))) (let ((.def_344 (or .def_30 A18))) (let ((.def_345 (= .def_344 .def_343))) (let ((.def_346 (not .def_345))) (let ((.def_347 (and .def_346 .def_341))) (let ((.def_348 (or .def_118 A16))) (let ((.def_349 (or A12 .def_23))) (let ((.def_350 (not .def_349))) (let ((.def_351 (and .def_350 .def_348))) (let ((.def_352 (not .def_351))) (let ((.def_353 (or .def_46 .def_182))) (let ((.def_354 (or A11 A7))) (let ((.def_355 (not .def_354))) (let ((.def_356 (and .def_355 .def_353))) (let ((.def_357 (or .def_356 .def_352))) (let ((.def_358 (and .def_357 .def_347))) (let ((.def_359 (or .def_358 .def_336))) (let ((.def_360 (and .def_0 A20))) (let ((.def_361 (and A20 A15))) (let ((.def_362 (and .def_361 .def_360))) (let ((.def_363 (or .def_14 .def_46))) (let ((.def_364 (and .def_37 .def_131))) (let ((.def_365 (not .def_364))) (let ((.def_366 (and .def_365 .def_363))) (let ((.def_367 (not .def_366))) (let ((.def_368 (and .def_367 .def_362))) (let ((.def_369 (not .def_368))) (let ((.def_370 (or A16 A11))) (let ((.def_371 (or .def_55 A3))) (let ((.def_372 (not .def_371))) (let ((.def_373 (= .def_372 .def_370))) (let ((.def_374 (or .def_131 .def_118))) (let ((.def_375 (not .def_374))) (let ((.def_376 (= A2 A13))) (let ((.def_377 (or .def_376 .def_375))) (let ((.def_378 (not .def_377))) (let ((.def_379 (or .def_378 .def_373))) (let ((.def_380 (or .def_379 .def_369))) (let ((.def_381 (not .def_380))) (let ((.def_382 (and .def_49 .def_0))) (let ((.def_383 (or A24 A17))) (let ((.def_384 (or .def_383 .def_382))) (let ((.def_385 (= .def_14 .def_56))) (let ((.def_386 (not .def_385))) (let ((.def_387 (or A14 A18))) (let ((.def_388 (or .def_387 .def_386))) (let ((.def_389 (or .def_388 .def_384))) (let ((.def_390 (not .def_389))) (let ((.def_391 (or .def_30 .def_46))) (let ((.def_392 (and A20 A2))) (let ((.def_393 (or .def_392 .def_391))) (let ((.def_394 (= A22 A23))) (let ((.def_395 (not .def_394))) (let ((.def_396 (or A13 A1))) (let ((.def_397 (not .def_396))) (let ((.def_398 (or .def_397 .def_395))) (let ((.def_399 (not .def_398))) (let ((.def_400 (and .def_399 .def_393))) (let ((.def_401 (not .def_400))) (let ((.def_402 (and .def_401 .def_390))) (let ((.def_403 (and .def_402 .def_381))) (let ((.def_404 (and .def_403 .def_359))) (let ((.def_405 (not .def_404))) (let ((.def_406 (or .def_405 .def_316))) (let ((.def_407 (not .def_406))) (let ((.def_408 (and .def_407 .def_222))) .def_408))))))))))))))))))))))))))))))))))))))))))))))))))))))))))))))))))))))))))))))))))))))))))))))))))))))))))))))))))))))))))))))))))))))))))))))))))))))))))))))))))))))))))))))))))))))))))))))))))))))))))))))))))))))))))))))))))))))))))))))))))))))))))))))))))))))))))))))))))))))))))))))))))))))))))))))))))))))))))))))))))))))))))))))))))))))))))))))))))))))))))))))))))))))))))))))))))))))))))))))))))))))))))
(check-sat)
